p cnf 10 43
-4 -6 -8 0
-4 5 8 0
-1 -5 10 0
1 7 10 0
-4 6 9 0
-1 5 -7 0
-5 -7 -10 0
4 -5 10 0
-4 -9 10 0
4 -5 9 0
-1 3 7 0
-3 -5 -7 0
-3 -5 9 0
-7 8 9 0
-1 -4 -5 0
-1 -4 8 0
1 4 -8 0
5 7 -10 0
4 5 9 0
3 -6 -10 0
4 5 -7 0
-2 8 9 0
1 3 -4 0
-3 -4 7 0
1 -3 6 0
3 -6 -8 0
-2 -5 6 0
3 6 9 0
-3 5 9 0
-3 4 -6 0
4 -5 8 0
-3 -6 -8 0
-5 -7 8 0
-1 -3 -6 0
4 9 -10 0
-1 3 4 0
-2 -4 -9 0
-2 5 -6 0
3 -7 -8 0
5 6 -10 0
1 8 9 0
1 -4 -8 0
-2 3 9 0
